% demand
num_movements = 31;
loading_factor = [1900, 1750, 900, 850, 1400, 2000, 1250, 1100, 1500, 1150, 1300, 1800, 1650, 1500, 1250, 1600, 1000, 1150, 1550, 1950, 1550, 1950, 1700, 2000, 1400, 1800, 1100, 1000, 1950, 1350, 900];
pickup_time = [0, 0, 0, 0, 0, 2, 2, 2, 2, 2, 4, 4, 4, 6, 6, 6, 6, 7, 8, 8, 8, 8, 9, 9, 9, 9, 10, 10, 10, 10, 10];
delivery_time = [1, 1, 1, 1, 1, 6, 4, 4, 3, 4, 6, 6, 8, 8, 7, 7, 8, 8, 9, 9, 9, 9, 10, 10, 10, 10, 11, 11, 11, 11, 11];

% transporter definition
total_capacity = 7000;
num_decks = 3;
capacity = [3000, 1000, 3000];

% ways out of decks
num_ways_out = 1;
paths_out = array3d(decks, ways_out, decks, [
% ways out of deck d1
2, 3, 0, 

% ways out of deck d2
3, 0, 0, 

% ways out of deck d3
0, 0, 0,	

]);

